
Gurobi 12.0.2 (win64) logging started Wed Nov 26 14:37:41 2025

Set parameter LogFile to value "resultados DATA_1_n20m10b2d2\instancia_2_log.txt"
Set parameter TimeLimit to value 3600
Gurobi Optimizer version 12.0.2 build v12.0.2rc0 (win64 - Windows 10.0 (19045.2))

CPU model: Intel(R) Core(TM) i5-6300U CPU @ 2.40GHz, instruction set [SSE2|AVX|AVX2]
Thread count: 2 physical cores, 4 logical processors, using up to 4 threads

Non-default parameters:
TimeLimit  3600

Optimize a model with 1090 rows, 3693 columns and 556785 nonzeros
Model fingerprint: 0x65d9a4b2
Variable types: 0 continuous, 3693 integer (3693 binary)
Coefficient statistics:
  Matrix range     [1e+00, 1e+00]
  Objective range  [3e-02, 2e-01]
  Bounds range     [1e+00, 1e+00]
  RHS range        [1e+00, 6e+00]
Found heuristic solution: objective 0.7373750
Presolve removed 4 rows and 3271 columns
Presolve time: 0.44s
Presolved: 1086 rows, 422 columns, 45170 nonzeros
Found heuristic solution: objective 0.3600000
Variable types: 0 continuous, 422 integer (422 binary)

Root relaxation: objective 9.844810e-01, 2060 iterations, 0.35 seconds (0.38 work units)

    Nodes    |    Current Node    |     Objective Bounds      |     Work
 Expl Unexpl |  Obj  Depth IntInf | Incumbent    BestBd   Gap | It/Node Time

     0     0    0.98448    0  265    0.73738    0.98448  33.5%     -    1s
H    0     0                       0.7755000    0.98448  26.9%     -    1s
H    0     0                       0.8212500    0.98448  19.9%     -    1s
H    0     0                       0.8605000    0.98448  14.4%     -    1s
     0     0    0.98180    0  256    0.86050    0.98180  14.1%     -    2s
H    0     0                       0.8762500    0.98180  12.0%     -    2s
     0     0    0.98174    0  262    0.87625    0.98174  12.0%     -    2s
     0     0    0.98118    0  236    0.87625    0.98118  12.0%     -    2s
     0     0    0.98102    0  233    0.87625    0.98102  12.0%     -    2s
     0     0    0.98045    0  237    0.87625    0.98045  11.9%     -    3s
     0     0    0.98045    0  236    0.87625    0.98045  11.9%     -    3s
     0     0    0.98030    0  248    0.87625    0.98030  11.9%     -    4s
     0     0    0.98026    0  244    0.87625    0.98026  11.9%     -    4s
     0     0    0.98019    0  250    0.87625    0.98019  11.9%     -    4s
     0     0    0.98018    0  250    0.87625    0.98018  11.9%     -    4s
     0     0    0.98014    0  252    0.87625    0.98014  11.9%     -    5s
     0     0    0.98012    0  258    0.87625    0.98012  11.9%     -    5s
     0     0    0.98009    0  253    0.87625    0.98009  11.9%     -    5s
     0     0    0.98008    0  253    0.87625    0.98008  11.8%     -    5s
     0     0    0.98007    0  256    0.87625    0.98007  11.8%     -    6s
H    0     0                       0.8830000    0.98007  11.0%     -    6s
H    0     0                       0.9030000    0.98007  8.54%     -    6s
     0     0    0.98007    0  258    0.90300    0.98007  8.53%     -    6s
     0     0    0.98005    0  256    0.90300    0.98005  8.53%     -    6s
H    0     0                       0.9205000    0.98005  6.47%     -    6s
     0     0    0.98004    0  256    0.92050    0.98004  6.47%     -    6s
     0     0    0.98003    0  260    0.92050    0.98003  6.47%     -    6s
     0     0    0.98003    0  260    0.92050    0.98003  6.47%     -    7s
H    0     0                       0.9280000    0.98003  5.61%     -    8s
     0     2    0.98003    0  260    0.92800    0.98003  5.61%     -    8s
    54    28     cutoff   14         0.92800    0.96739  4.25%   211   10s

Cutting planes:
  Clique: 3
  MIR: 7
  Zero half: 41

Explored 198 nodes (27117 simplex iterations) in 10.93 seconds (10.91 work units)
Thread count was 4 (of 4 available processors)

Solution count 10: 0.928 0.9205 0.903 ... 0.36
No other solutions better than 0.928

Optimal solution found (tolerance 1.00e-04)
Best objective 9.280000000000e-01, best bound 9.280000000000e-01, gap 0.0000%
